\ENCODING=ISO-8859-1
\Problem name: 

Minimize
 obj: 9.4339811320566 y_0_1 + 7.28010988928052 y_0_2 + 9.48683298050514 y_0_3
      + 14.142135623731 y_0_4 + 5.09901951359278 y_0_5 + 19.6468827043885 y_0_6
      + 19 y_0_7 + 7.28010988928052 y_0_8 + 11.1803398874989 y_0_9
      + 9.4339811320566 y_1_0 + 7.07106781186548 y_1_2 + 2.23606797749979 y_1_3
      + 6.70820393249937 y_1_4 + 7 y_1_5 + 11 y_1_6 + 12.0830459735946 y_1_7
      + 6.32455532033676 y_1_8 + 4.24264068711928 y_1_9
      + 7.28010988928052 y_2_0 + 7.07106781186548 y_2_1 + 5.3851648071345 y_2_3
      + 8.06225774829855 y_2_4 + 9.21954445729289 y_2_5
      + 13.8924439894498 y_2_6 + 12.1655250605964 y_2_7 + 10.295630140987 y_2_8
      + 5.65685424949238 y_2_9 + 9.48683298050514 y_3_0
      + 2.23606797749979 y_3_1 + 5.3851648071345 y_3_2 + 5.09901951359278 y_3_4
      + 8.24621125123532 y_3_5 + 10.1980390271856 y_3_6
      + 10.4403065089106 y_3_7 + 8.06225774829855 y_3_8
      + 2.23606797749979 y_3_9 + 14.142135623731 y_4_0 + 6.70820393249937 y_4_1
      + 8.06225774829855 y_4_2 + 5.09901951359278 y_4_3
      + 13.3416640641263 y_4_5 + 5.8309518948453 y_4_6 + 5.3851648071345 y_4_7
      + 13 y_4_8 + 3 y_4_9 + 5.09901951359278 y_5_0 + 7 y_5_1
      + 9.21954445729289 y_5_2 + 8.24621125123532 y_5_3
      + 13.3416640641263 y_5_4 + 18 y_5_6 + 18.6815416922694 y_5_7
      + 2.23606797749979 y_5_8 + 10.4403065089106 y_5_9
      + 19.6468827043885 y_6_0 + 11 y_6_1 + 13.8924439894498 y_6_2
      + 10.1980390271856 y_6_3 + 5.8309518948453 y_6_4 + 18 y_6_5 + 5 y_6_7
      + 17.1172427686237 y_6_8 + 8.54400374531753 y_6_9 + 19 y_7_0
      + 12.0830459735946 y_7_1 + 12.1655250605964 y_7_2
      + 10.4403065089106 y_7_3 + 5.3851648071345 y_7_4 + 18.6815416922694 y_7_5
      + 5 y_7_6 + 18.3847763108502 y_7_8 + 8.24621125123532 y_7_9
      + 7.28010988928052 y_8_0 + 6.32455532033676 y_8_1 + 10.295630140987 y_8_2
      + 8.06225774829855 y_8_3 + 13 y_8_4 + 2.23606797749979 y_8_5
      + 17.1172427686237 y_8_6 + 18.3847763108502 y_8_7 + 10.295630140987 y_8_9
      + 11.1803398874989 y_9_0 + 4.24264068711928 y_9_1
      + 5.65685424949238 y_9_2 + 2.23606797749979 y_9_3 + 3 y_9_4
      + 10.4403065089106 y_9_5 + 8.54400374531753 y_9_6
      + 8.24621125123532 y_9_7 + 10.295630140987 y_9_8
Subject To
 c1:   y_1_1  = 0
 c2:   y_2_2  = 0
 c3:   y_3_3  = 0
 c4:   y_4_4  = 0
 c5:   y_5_5  = 0
 c6:   y_6_6  = 0
 c7:   y_7_7  = 0
 c8:   y_8_8  = 0
 c9:   y_9_9  = 0
 c10:  x_0_1 + x_1_1 - x_1_2 - x_1_3 - x_1_4 - x_1_5 - x_1_6 - x_1_7 - x_1_8
       - x_1_9 + x_2_1 + x_3_1 + x_4_1 + x_5_1 + x_6_1 + x_7_1 + x_8_1 + x_9_1
        = 1
 c11:  x_0_2 + x_1_2 - x_2_1 + x_2_2 - x_2_3 - x_2_4 - x_2_5 - x_2_6 - x_2_7
       - x_2_8 - x_2_9 + x_3_2 + x_4_2 + x_5_2 + x_6_2 + x_7_2 + x_8_2 + x_9_2
        = 1
 c12:  x_0_3 + x_1_3 + x_2_3 - x_3_1 - x_3_2 + x_3_3 - x_3_4 - x_3_5 - x_3_6
       - x_3_7 - x_3_8 - x_3_9 + x_4_3 + x_5_3 + x_6_3 + x_7_3 + x_8_3 + x_9_3
        = 1
 c13:  x_0_4 + x_1_4 + x_2_4 + x_3_4 - x_4_1 - x_4_2 - x_4_3 + x_4_4 - x_4_5
       - x_4_6 - x_4_7 - x_4_8 - x_4_9 + x_5_4 + x_6_4 + x_7_4 + x_8_4 + x_9_4
        = 1
 c14:  x_0_5 + x_1_5 + x_2_5 + x_3_5 + x_4_5 - x_5_1 - x_5_2 - x_5_3 - x_5_4
       + x_5_5 - x_5_6 - x_5_7 - x_5_8 - x_5_9 + x_6_5 + x_7_5 + x_8_5 + x_9_5
        = 1
 c15:  x_0_6 + x_1_6 + x_2_6 + x_3_6 + x_4_6 + x_5_6 - x_6_1 - x_6_2 - x_6_3
       - x_6_4 - x_6_5 + x_6_6 - x_6_7 - x_6_8 - x_6_9 + x_7_6 + x_8_6 + x_9_6
        = 1
 c16:  x_0_7 + x_1_7 + x_2_7 + x_3_7 + x_4_7 + x_5_7 + x_6_7 - x_7_1 - x_7_2
       - x_7_3 - x_7_4 - x_7_5 - x_7_6 + x_7_7 - x_7_8 - x_7_9 + x_8_7 + x_9_7
        = 1
 c17:  x_0_8 + x_1_8 + x_2_8 + x_3_8 + x_4_8 + x_5_8 + x_6_8 + x_7_8 - x_8_1
       - x_8_2 - x_8_3 - x_8_4 - x_8_5 - x_8_6 - x_8_7 + x_8_8 - x_8_9 + x_9_8
        = 1
 c18:  x_0_9 + x_1_9 + x_2_9 + x_3_9 + x_4_9 + x_5_9 + x_6_9 + x_7_9 + x_8_9
       - x_9_1 - x_9_2 - x_9_3 - x_9_4 - x_9_5 - x_9_6 - x_9_7 - x_9_8 + x_9_9
        = 1
 c19:  y_0_0 + y_0_1 + y_0_2 + y_0_3 + y_0_4 + y_0_5 + y_0_6 + y_0_7 + y_0_8
       + y_0_9  = 1
 c20:  y_1_0 + y_1_1 + y_1_2 + y_1_3 + y_1_4 + y_1_5 + y_1_6 + y_1_7 + y_1_8
       + y_1_9  = 1
 c21:  y_2_0 + y_2_1 + y_2_2 + y_2_3 + y_2_4 + y_2_5 + y_2_6 + y_2_7 + y_2_8
       + y_2_9  = 1
 c22:  y_3_0 + y_3_1 + y_3_2 + y_3_3 + y_3_4 + y_3_5 + y_3_6 + y_3_7 + y_3_8
       + y_3_9  = 1
 c23:  y_4_0 + y_4_1 + y_4_2 + y_4_3 + y_4_4 + y_4_5 + y_4_6 + y_4_7 + y_4_8
       + y_4_9  = 1
 c24:  y_5_0 + y_5_1 + y_5_2 + y_5_3 + y_5_4 + y_5_5 + y_5_6 + y_5_7 + y_5_8
       + y_5_9  = 1
 c25:  y_6_0 + y_6_1 + y_6_2 + y_6_3 + y_6_4 + y_6_5 + y_6_6 + y_6_7 + y_6_8
       + y_6_9  = 1
 c26:  y_7_0 + y_7_1 + y_7_2 + y_7_3 + y_7_4 + y_7_5 + y_7_6 + y_7_7 + y_7_8
       + y_7_9  = 1
 c27:  y_8_0 + y_8_1 + y_8_2 + y_8_3 + y_8_4 + y_8_5 + y_8_6 + y_8_7 + y_8_8
       + y_8_9  = 1
 c28:  y_9_0 + y_9_1 + y_9_2 + y_9_3 + y_9_4 + y_9_5 + y_9_6 + y_9_7 + y_9_8
       + y_9_9  = 1
 c29:  y_0_0 + y_1_0 + y_2_0 + y_3_0 + y_4_0 + y_5_0 + y_6_0 + y_7_0 + y_8_0
       + y_9_0  = 1
 c30:  y_0_1 + y_1_1 + y_2_1 + y_3_1 + y_4_1 + y_5_1 + y_6_1 + y_7_1 + y_8_1
       + y_9_1  = 1
 c31:  y_0_2 + y_1_2 + y_2_2 + y_3_2 + y_4_2 + y_5_2 + y_6_2 + y_7_2 + y_8_2
       + y_9_2  = 1
 c32:  y_0_3 + y_1_3 + y_2_3 + y_3_3 + y_4_3 + y_5_3 + y_6_3 + y_7_3 + y_8_3
       + y_9_3  = 1
 c33:  y_0_4 + y_1_4 + y_2_4 + y_3_4 + y_4_4 + y_5_4 + y_6_4 + y_7_4 + y_8_4
       + y_9_4  = 1
 c34:  y_0_5 + y_1_5 + y_2_5 + y_3_5 + y_4_5 + y_5_5 + y_6_5 + y_7_5 + y_8_5
       + y_9_5  = 1
 c35:  y_0_6 + y_1_6 + y_2_6 + y_3_6 + y_4_6 + y_5_6 + y_6_6 + y_7_6 + y_8_6
       + y_9_6  = 1
 c36:  y_0_7 + y_1_7 + y_2_7 + y_3_7 + y_4_7 + y_5_7 + y_6_7 + y_7_7 + y_8_7
       + y_9_7  = 1
 c37:  y_0_8 + y_1_8 + y_2_8 + y_3_8 + y_4_8 + y_5_8 + y_6_8 + y_7_8 + y_8_8
       + y_9_8  = 1
 c38:  y_0_9 + y_1_9 + y_2_9 + y_3_9 + y_4_9 + y_5_9 + y_6_9 + y_7_9 + y_8_9
       + y_9_9  = 1
 c39:  x_0_1 - 9 y_0_1 <= 0
 c40:  x_0_2 - 9 y_0_2 <= 0
 c41:  x_0_3 - 9 y_0_3 <= 0
 c42:  x_0_4 - 9 y_0_4 <= 0
 c43:  x_0_5 - 9 y_0_5 <= 0
 c44:  x_0_6 - 9 y_0_6 <= 0
 c45:  x_0_7 - 9 y_0_7 <= 0
 c46:  x_0_8 - 9 y_0_8 <= 0
 c47:  x_0_9 - 9 y_0_9 <= 0
 c48:  x_1_1 - 9 y_1_1 <= 0
 c49:  x_1_2 - 9 y_1_2 <= 0
 c50:  x_1_3 - 9 y_1_3 <= 0
 c51:  x_1_4 - 9 y_1_4 <= 0
 c52:  x_1_5 - 9 y_1_5 <= 0
 c53:  x_1_6 - 9 y_1_6 <= 0
 c54:  x_1_7 - 9 y_1_7 <= 0
 c55:  x_1_8 - 9 y_1_8 <= 0
 c56:  x_1_9 - 9 y_1_9 <= 0
 c57:  x_2_1 - 9 y_2_1 <= 0
 c58:  x_2_2 - 9 y_2_2 <= 0
 c59:  x_2_3 - 9 y_2_3 <= 0
 c60:  x_2_4 - 9 y_2_4 <= 0
 c61:  x_2_5 - 9 y_2_5 <= 0
 c62:  x_2_6 - 9 y_2_6 <= 0
 c63:  x_2_7 - 9 y_2_7 <= 0
 c64:  x_2_8 - 9 y_2_8 <= 0
 c65:  x_2_9 - 9 y_2_9 <= 0
 c66:  x_3_1 - 9 y_3_1 <= 0
 c67:  x_3_2 - 9 y_3_2 <= 0
 c68:  x_3_3 - 9 y_3_3 <= 0
 c69:  x_3_4 - 9 y_3_4 <= 0
 c70:  x_3_5 - 9 y_3_5 <= 0
 c71:  x_3_6 - 9 y_3_6 <= 0
 c72:  x_3_7 - 9 y_3_7 <= 0
 c73:  x_3_8 - 9 y_3_8 <= 0
 c74:  x_3_9 - 9 y_3_9 <= 0
 c75:  x_4_1 - 9 y_4_1 <= 0
 c76:  x_4_2 - 9 y_4_2 <= 0
 c77:  x_4_3 - 9 y_4_3 <= 0
 c78:  x_4_4 - 9 y_4_4 <= 0
 c79:  x_4_5 - 9 y_4_5 <= 0
 c80:  x_4_6 - 9 y_4_6 <= 0
 c81:  x_4_7 - 9 y_4_7 <= 0
 c82:  x_4_8 - 9 y_4_8 <= 0
 c83:  x_4_9 - 9 y_4_9 <= 0
 c84:  x_5_1 - 9 y_5_1 <= 0
 c85:  x_5_2 - 9 y_5_2 <= 0
 c86:  x_5_3 - 9 y_5_3 <= 0
 c87:  x_5_4 - 9 y_5_4 <= 0
 c88:  x_5_5 - 9 y_5_5 <= 0
 c89:  x_5_6 - 9 y_5_6 <= 0
 c90:  x_5_7 - 9 y_5_7 <= 0
 c91:  x_5_8 - 9 y_5_8 <= 0
 c92:  x_5_9 - 9 y_5_9 <= 0
 c93:  x_6_1 - 9 y_6_1 <= 0
 c94:  x_6_2 - 9 y_6_2 <= 0
 c95:  x_6_3 - 9 y_6_3 <= 0
 c96:  x_6_4 - 9 y_6_4 <= 0
 c97:  x_6_5 - 9 y_6_5 <= 0
 c98:  x_6_6 - 9 y_6_6 <= 0
 c99:  x_6_7 - 9 y_6_7 <= 0
 c100: x_6_8 - 9 y_6_8 <= 0
 c101: x_6_9 - 9 y_6_9 <= 0
 c102: x_7_1 - 9 y_7_1 <= 0
 c103: x_7_2 - 9 y_7_2 <= 0
 c104: x_7_3 - 9 y_7_3 <= 0
 c105: x_7_4 - 9 y_7_4 <= 0
 c106: x_7_5 - 9 y_7_5 <= 0
 c107: x_7_6 - 9 y_7_6 <= 0
 c108: x_7_7 - 9 y_7_7 <= 0
 c109: x_7_8 - 9 y_7_8 <= 0
 c110: x_7_9 - 9 y_7_9 <= 0
 c111: x_8_1 - 9 y_8_1 <= 0
 c112: x_8_2 - 9 y_8_2 <= 0
 c113: x_8_3 - 9 y_8_3 <= 0
 c114: x_8_4 - 9 y_8_4 <= 0
 c115: x_8_5 - 9 y_8_5 <= 0
 c116: x_8_6 - 9 y_8_6 <= 0
 c117: x_8_7 - 9 y_8_7 <= 0
 c118: x_8_8 - 9 y_8_8 <= 0
 c119: x_8_9 - 9 y_8_9 <= 0
 c120: x_9_1 - 9 y_9_1 <= 0
 c121: x_9_2 - 9 y_9_2 <= 0
 c122: x_9_3 - 9 y_9_3 <= 0
 c123: x_9_4 - 9 y_9_4 <= 0
 c124: x_9_5 - 9 y_9_5 <= 0
 c125: x_9_6 - 9 y_9_6 <= 0
 c126: x_9_7 - 9 y_9_7 <= 0
 c127: x_9_8 - 9 y_9_8 <= 0
 c128: x_9_9 - 9 y_9_9 <= 0
Bounds
 0 <= y_0_0 <= 1
 0 <= y_0_1 <= 1
 0 <= y_0_2 <= 1
 0 <= y_0_3 <= 1
 0 <= y_0_4 <= 1
 0 <= y_0_5 <= 1
 0 <= y_0_6 <= 1
 0 <= y_0_7 <= 1
 0 <= y_0_8 <= 1
 0 <= y_0_9 <= 1
 0 <= y_1_0 <= 1
 0 <= y_1_1 <= 1
 0 <= y_1_2 <= 1
 0 <= y_1_3 <= 1
 0 <= y_1_4 <= 1
 0 <= y_1_5 <= 1
 0 <= y_1_6 <= 1
 0 <= y_1_7 <= 1
 0 <= y_1_8 <= 1
 0 <= y_1_9 <= 1
 0 <= y_2_0 <= 1
 0 <= y_2_1 <= 1
 0 <= y_2_2 <= 1
 0 <= y_2_3 <= 1
 0 <= y_2_4 <= 1
 0 <= y_2_5 <= 1
 0 <= y_2_6 <= 1
 0 <= y_2_7 <= 1
 0 <= y_2_8 <= 1
 0 <= y_2_9 <= 1
 0 <= y_3_0 <= 1
 0 <= y_3_1 <= 1
 0 <= y_3_2 <= 1
 0 <= y_3_3 <= 1
 0 <= y_3_4 <= 1
 0 <= y_3_5 <= 1
 0 <= y_3_6 <= 1
 0 <= y_3_7 <= 1
 0 <= y_3_8 <= 1
 0 <= y_3_9 <= 1
 0 <= y_4_0 <= 1
 0 <= y_4_1 <= 1
 0 <= y_4_2 <= 1
 0 <= y_4_3 <= 1
 0 <= y_4_4 <= 1
 0 <= y_4_5 <= 1
 0 <= y_4_6 <= 1
 0 <= y_4_7 <= 1
 0 <= y_4_8 <= 1
 0 <= y_4_9 <= 1
 0 <= y_5_0 <= 1
 0 <= y_5_1 <= 1
 0 <= y_5_2 <= 1
 0 <= y_5_3 <= 1
 0 <= y_5_4 <= 1
 0 <= y_5_5 <= 1
 0 <= y_5_6 <= 1
 0 <= y_5_7 <= 1
 0 <= y_5_8 <= 1
 0 <= y_5_9 <= 1
 0 <= y_6_0 <= 1
 0 <= y_6_1 <= 1
 0 <= y_6_2 <= 1
 0 <= y_6_3 <= 1
 0 <= y_6_4 <= 1
 0 <= y_6_5 <= 1
 0 <= y_6_6 <= 1
 0 <= y_6_7 <= 1
 0 <= y_6_8 <= 1
 0 <= y_6_9 <= 1
 0 <= y_7_0 <= 1
 0 <= y_7_1 <= 1
 0 <= y_7_2 <= 1
 0 <= y_7_3 <= 1
 0 <= y_7_4 <= 1
 0 <= y_7_5 <= 1
 0 <= y_7_6 <= 1
 0 <= y_7_7 <= 1
 0 <= y_7_8 <= 1
 0 <= y_7_9 <= 1
 0 <= y_8_0 <= 1
 0 <= y_8_1 <= 1
 0 <= y_8_2 <= 1
 0 <= y_8_3 <= 1
 0 <= y_8_4 <= 1
 0 <= y_8_5 <= 1
 0 <= y_8_6 <= 1
 0 <= y_8_7 <= 1
 0 <= y_8_8 <= 1
 0 <= y_8_9 <= 1
 0 <= y_9_0 <= 1
 0 <= y_9_1 <= 1
 0 <= y_9_2 <= 1
 0 <= y_9_3 <= 1
 0 <= y_9_4 <= 1
 0 <= y_9_5 <= 1
 0 <= y_9_6 <= 1
 0 <= y_9_7 <= 1
 0 <= y_9_8 <= 1
 0 <= y_9_9 <= 1
Binaries
 y_0_0  y_0_1  y_0_2  y_0_3  y_0_4  y_0_5  y_0_6  y_0_7  y_0_8  y_0_9  y_1_0 
 y_1_1  y_1_2  y_1_3  y_1_4  y_1_5  y_1_6  y_1_7  y_1_8  y_1_9  y_2_0  y_2_1 
 y_2_2  y_2_3  y_2_4  y_2_5  y_2_6  y_2_7  y_2_8  y_2_9  y_3_0  y_3_1  y_3_2 
 y_3_3  y_3_4  y_3_5  y_3_6  y_3_7  y_3_8  y_3_9  y_4_0  y_4_1  y_4_2  y_4_3 
 y_4_4  y_4_5  y_4_6  y_4_7  y_4_8  y_4_9  y_5_0  y_5_1  y_5_2  y_5_3  y_5_4 
 y_5_5  y_5_6  y_5_7  y_5_8  y_5_9  y_6_0  y_6_1  y_6_2  y_6_3  y_6_4  y_6_5 
 y_6_6  y_6_7  y_6_8  y_6_9  y_7_0  y_7_1  y_7_2  y_7_3  y_7_4  y_7_5  y_7_6 
 y_7_7  y_7_8  y_7_9  y_8_0  y_8_1  y_8_2  y_8_3  y_8_4  y_8_5  y_8_6  y_8_7 
 y_8_8  y_8_9  y_9_0  y_9_1  y_9_2  y_9_3  y_9_4  y_9_5  y_9_6  y_9_7  y_9_8 
 y_9_9 
End
